(set-logic ALL)
(set-option :produce-models true)
(declare-sort BoundSet 0)
(declare-sort UnboundSet 0)
(set-option :finite-model-find true)
(declare-fun IsIncreasedBy (BoundSet BoundSet) Bool)
(declare-fun IsInPastDecade (BoundSet) Bool)
(declare-fun IsLargestEmiter (BoundSet) Bool)
(assert (not (=> (and (exists ((c BoundSet)) (exists ((a BoundSet)) (exists ((b BoundSet)) (and (IsIncreasedBy b a) (IsInPastDecade c))))) (forall ((e BoundSet)) (forall ((d BoundSet)) (=> (IsLargestEmiter d) (IsIncreasedBy e d))))) (exists ((a BoundSet)) (IsLargestEmiter a)))))
(check-sat)
(get-model)